Optimal - objective value 7.30973400
      0 r_0                         0                0.946903
      1 r_1                         0                0.938053
      2 r_2                         1                0.938053
      3 r_3                         0                0.929204
      4 r_4                         0                0.929204
      5 r_5                         0                0.929204
      6 r_6                         0                0.920354
      7 r_7                         0                0.911504
      8 r_8                         0                0.911504
      9 r_9                         0                0.902655
     10 r_10                        0                0.902655
     11 r_11                        0                0.902655
     12 r_12                        0                0.902655
     13 r_13                        1                0.893805
     14 r_14                        0                0.884956
     15 r_15                        0                0.884956
     16 b_0                         0                0.946903
     17 b_1                         1                0.938053
     18 b_2                         0                0.938053
     19 b_3                         0                0.929204
     20 b_4                         0                0.929204
     21 b_5                         1                0.929204
     22 b_6                         0                0.920354
     23 b_7                         1                0.911504
     24 b_8                         1                0.911504
     25 b_9                         0                0.902655
     26 b_10                        0                0.902655
     27 b_11                        1                0.902655
     28 b_12                        0                0.902655
     29 b_13                        0                0.893805
     30 b_14                        0                0.884956
     31 b_15                        1                0.884956
